
630.0
630.0
630.0
630.0
630.0
630.0
630.0
960.0
630.0
780.0
630.0
630.0
630.0
630.0
630.0
630.0
630.0
840.0
630.0
630.0
630.0
630.0
630.0
630.0
630.0
630.0
630.0
630.0
630.0
630.0
630.0
630.0
630.0
630.0
630.0
630.0
810.0
1020.0
630.0
630.0
960.0
780.0
630.0
960.0
630.0
630.0
960.0
630.0
630.0
690.0